%%MatrixMarket matrix array real general
%
101 1
-3.80181
-3.73841
-3.67502
-3.61162
-3.54822
-3.48482
-3.42143
-3.35803
-3.29463
-3.23123
-3.16784
-3.10444
-3.04104
-2.97764
-2.91425
-2.85085
-2.78745
-2.72405
-2.66066
-2.59726
-2.53386
-2.47047
-2.40707
-2.34367
-2.28027
-2.21688
-2.15348
-2.09008
-2.02668
-1.96329
-1.89989
-1.83649
-1.77309
-1.7097
-1.6463
-1.5829
-1.5195
-1.45611
-1.39271
-1.32931
-1.26591
-1.20252
-1.13912
-1.07572
-1.01232
-0.948927
-0.88553
-0.822133
-0.758735
-0.695338
-0.631941
-0.568543
-0.505146
-0.441749
-0.378351
-0.314954
-0.251557
-0.188159
-0.124762
-0.0613645
0.00203282
0.0654302
0.128828
0.192225
0.255622
0.31902
0.382417
0.445814
0.509212
0.572609
0.636006
0.699404
0.762801
0.826198
0.889596
0.952993
1.01639
1.07979
1.14319
1.20658
1.26998
1.33338
1.39677
1.46017
1.52357
1.58697
1.65036
1.71376
1.77716
1.84056
1.90395
1.96735
2.03075
2.09415
2.15754
2.22094
2.28434
2.34774
2.41113
2.47453
2.53793
