%%MatrixMarket matrix array real general
%
779 1
0.262378
-0.0274752
0.966531
0.414874
0.719777
0.929758
0.704249
-0.0113769
-0.643176
-0.191626
-0.4509
0.23222
0.700679
0.842731
0.196441
1.11121
0.641853
1.49101
0.938556
0.685683
-0.139316
0.140917
-0.497849
-0.0515022
-0.356627
-0.0353933
-0.267656
-0.0129631
0.808177
1.4344
1.20102
1.43557
1.58656
1.64667
1.19681
0.694064
0.597342
0.0527673
0.661666
-0.27835
-0.207021
0.397162
1.37545
0.509344
-0.454301
-0.0866238
0.480849
0.549124
0.800999
0.0767375
-0.487659
-1.12338
-2.03974
-1.80685
-0.927528
-1.10627
-0.137571
0.753587
1.10688
2.08348
1.75688
2.08164
1.56997
1.16099
1.52134
1.57704
1.40023
1.6055
1.70909
1.87623
1.89987
1.06505
1.50419
1.21326
0.90616
0.81555
0.642404
0.0778685
-0.670822
-0.218613
0.347131
0.734706
-0.24569
0.440737
1.2854
0.370721
0.127093
0.535772
0.994798
0.443353
-0.0185379
0.327524
0.282509
0.529942
0.00283146
0.662118
-0.122104
-0.142576
-0.756086
0.0356974
0.150288
0.695278
0.319158
-0.0029307
0.0173743
0.830103
1.08795
0.291019
0.0727282
-0.818039
-0.815473
-0.95203
0.0430903
0.666296
0.637599
1.42649
0.701588
0.481597
1.33631
1.76346
1.45003
2.32209
1.57164
2.03281
2.32576
2.12233
2.62197
2.26689
2.37141
2.47003
2.13088
1.85215
2.36517
2.19297
2.17766
2.56715
3.51262
3.16813
3.64627
2.71012
2.42385
2.74916
2.31217
1.77293
2.19519
2.37641
2.69728
1.79239
1.48996
1.39264
0.874452
1.30454
0.867558
1.32966
0.605185
1.27863
0.555834
0.732253
0.464567
1.07809
1.08565
1.06484
0.77112
0.670007
-0.245398
0.700519
0.0789325
0.413173
0.586052
0.936277
0.658321
0.898878
-0.0626069
0.886996
1.1897
0.652171
0.459153
-0.00396895
-0.488277
-1.18381
-1.48779
-0.719487
0.140594
-0.061366
-0.376619
0.0953133
0.684678
0.774489
1.14694
1.9342
1.04379
0.651108
-0.256509
-0.865555
-0.425224
0.0182829
0.773881
0.938747
0.0801157
0.925605
0.497499
0.584825
1.55438
1.98573
2.66367
2.53019
2.47144
2.59287
2.13105
2.13883
1.75432
1.03177
0.982915
0.707834
1.26843
1.60545
0.872458
-0.0844306
0.0352508
-0.363111
0.515708
1.47752
1.05076
1.6524
1.84745
1.94577
2.09928
1.151
1.04406
1.33666
1.37907
1.12369
1.78276
1.52783
1.86476
1.27831
0.422414
0.235867
0.56973
1.43718
1.40628
1.24037
2.18395
2.91224
2.69001
2.59949
2.09287
2.66171
2.77828
2.97602
2.27377
2.17456
1.5859
2.35088
1.92078
2.26723
2.59579
1.84142
1.65605
1.20663
1.63997
1.20674
1.99913
1.77919
1.77499
2.1646
1.81669
1.72954
2.15713
2.59884
1.63607
1.98562
1.86264
1.73828
0.97235
1.60171
1.25142
0.743881
0.429307
0.180692
0.273799
0.397639
0.189284
-0.0144543
0.0162801
0.331341
1.23317
1.67787
1.47803
2.14177
1.41045
0.531381
0.179821
-0.216725
-1.19336
-1.11355
-1.92281
-1.66053
-0.941885
0.00655854
0.148235
0.255319
0.286236
-0.0524003
-0.192397
-0.208784
-1.06671
-0.291232
-0.418862
0.234397
0.461347
1.09863
1.8711
2.73332
2.11489
1.63206
2.42779
2.43547
2.49925
1.9034
1.81118
1.667
2.59911
3.03944
2.73323
2.76721
2.8806
2.19359
2.3177
2.17061
2.63339
2.35345
2.26187
2.03465
2.58576
2.44632
2.83382
2.05249
1.83235
2.01416
1.93292
1.0336
0.490979
1.15936
0.190646
0.918068
0.0742061
0.412291
0.412714
-0.151299
-0.00806719
-0.763689
-0.421356
-0.222185
-0.917184
-1.87794
-2.00759
-1.34315
-1.10837
-1.06811
-0.340372
0.475732
-0.308234
-0.274241
-0.987929
-0.869188
-0.335824
0.361595
1.33553
1.3458
0.888641
0.0901417
0.105839
0.277058
0.802832
-0.0312428
0.29195
0.325908
-0.331996
0.545119
0.726086
0.607355
0.919183
0.823074
1.50247
1.56772
1.67549
2.03562
1.77
1.24858
1.40643
1.21998
0.445213
0.332905
-0.0667266
-0.263953
0.402774
0.210032
-0.0690706
-0.54881
-0.699093
-0.70896
-0.296145
0.273995
0.061762
-0.496884
-1.21192
-1.01414
-0.212029
0.66673
0.109099
0.0744421
-0.173536
-0.125976
-0.253321
0.656035
0.517228
1.44035
0.455043
0.81512
1.22702
1.51728
1.6219
1.05812
1.60285
1.05891
0.800635
1.58249
1.38736
1.0234
1.24067
2.06106
2.24425
1.90939
2.61552
2.50031
1.56667
1.63153
0.990129
0.663195
0.0386205
-0.317525
-0.509812
-0.412679
-1.3152
-1.20974
-1.66011
-2.17711
-2.86879
-1.95596
-1.08464
-0.447208
0.00931573
-0.269942
-0.892362
-1.88997
-2.25713
-1.85789
-1.60738
-1.52126
-1.51794
-0.994847
-0.470031
-0.31792
0.177406
0.468475
0.477271
0.171793
-0.431867
-0.0873266
-0.224304
0.164504
-0.321927
-0.257361
0.635099
0.420468
-0.529821
-0.186948
0.487394
1.43039
0.544259
0.444906
0.609847
0.983123
1.42199
1.87582
1.62351
0.85575
-0.0289416
0.930589
0.500236
0.690185
0.0617414
-0.552179
-0.868891
-0.00309485
-0.22176
-0.427542
-0.678097
-1.41587
-1.54579
-1.31653
-1.17001
-0.590552
-0.694513
-0.555796
-1.43299
-1.44042
-1.15579
-0.481672
0.460478
1.15322
1.16522
0.722974
1.21621
0.690069
0.93059
1.13111
0.476323
1.19346
1.59273
2.0431
1.50287
1.65498
1.46266
0.642659
0.284541
0.307359
0.758735
0.871847
0.930566
1.59053
2.16859
1.80426
1.70867
2.21313
1.43285
0.652334
0.192102
0.241376
1.18668
0.810398
0.393313
1.09403
1.37258
0.88332
0.0606518
0.737163
0.9066
1.80282
0.924876
1.09416
0.664374
1.31984
0.701812
0.586872
0.373695
1.02684
1.38058
0.795791
0.432
-0.300378
0.042548
0.18453
0.13669
0.952894
1.05724
0.123124
0.733251
0.636001
0.401293
0.98058
0.709154
0.773854
1.19717
1.94012
1.5975
1.89774
1.04967
0.877443
0.495716
0.0233843
0.540917
-0.0859402
0.47635
-0.132054
0.852664
1.45719
1.30564
1.76337
1.76008
1.47309
0.619581
0.801564
0.189095
0.053831
0.55215
1.4448
1.97215
2.08979
1.45747
1.45337
1.48906
2.41387
2.22087
2.17984
1.64343
1.43601
1.55312
1.62326
0.85451
-0.0425929
-0.433895
-0.273511
-0.211582
0.590834
0.671935
0.535896
0.62123
1.04606
0.0794088
0.681251
-0.0337307
-0.0767817
0.246748
-0.414034
-0.760355
0.000320673
-0.191741
0.746109
0.561021
1.25
1.48065
1.23387
1.16378
1.02225
0.690913
0.884207
1.68819
1.4431
1.91301
1.99864
2.07885
1.70107
0.843537
0.207498
-0.606524
-0.679546
0.150506
0.435989
-0.50324
-0.593308
-1.57601
-1.12185
-1.41362
-0.852728
-0.979415
-1.10631
-2.00704
-1.81897
-2.3368
-1.65406
-0.939636
-0.0124115
-0.0346119
-0.593992
-0.520416
0.00380331
-0.301062
-0.378599
-0.0999513
0.734721
0.0578659
0.489137
0.644615
0.511212
1.2797
1.0658
0.423752
0.690419
0.93842
0.594303
1.20023
0.454308
-0.0812119
0.133653
-0.644728
-0.829809
-0.0616554
0.0346102
-0.227384
-0.810692
-0.928805
-0.0164129
-0.0748864
0.638906
-0.274313
0.108937
1.06691
0.633444
-0.0989949
0.271564
1.09047
1.89044
1.27731
1.78616
1.47868
1.31593
0.627368
1.26537
1.51522
0.649661
1.55124
1.5464
2.20866
1.52166
1.43628
1.67248
1.83797
2.54782
1.61755
1.43302
0.50578
0.998076
0.307734
0.519652
0.0286133
-0.167805
-0.395423
-0.175819
-0.529446
0.00974751
-0.522017
-0.0412856
0.344351
0.992508
1.64846
1.2352
0.853937
0.899997
0.550595
0.664591
0.190519
0.551652
0.0189578
-0.0681915
-0.299058
-0.221855
0.761553
1.27199
2.2329
1.70247
0.805341
1.31909
1.52305
2.38202
2.20105
1.20173
1.28349
0.698951
0.350564
0.845631
1.34265
1.42925
1.10551
1.77018
1.87532
1.58833
1.68114
1.3745
1.6201
2.21335
1.46443
2.10921
1.15952
0.988373
1.45119
2.01394
1.74851
