%%MatrixMarket matrix array real general
%
816 1
0.629447
1.4562
1.72092
0.915998
0.472995
0.566758
-0.118016
0.82317
1.7375
1.70825
2.30882
1.59259
1.43611
0.507534
1.20579
1.56326
2.04953
1.83398
2.14494
1.48731
0.550977
0.104823
-0.802834
-0.155919
0.233739
-0.132062
0.768382
-0.162726
-0.285237
-0.52212
0.00891328
0.599313
-0.0269417
-0.0474129
-0.15624
0.136386
0.555115
1.06449
0.616539
0.975944
1.28614
0.611364
-0.150641
-0.153913
0.765575
0.446347
0.616882
0.0645059
0.56704
0.0772303
0.0891444
0.487298
1.2691
1.36354
0.640784
-0.0606278
0.620807
0.129371
0.757941
0.244991
1.10352
0.803485
0.196676
0.428765
0.375343
0.078662
0.740319
0.910847
1.01029
0.581973
1.09637
1.60383
1.36472
1.50037
0.652075
-0.240025
-0.17843
0.379905
-0.360283
-0.222636
-0.283854
-0.609609
-0.02104
0.0360264
-0.632676
-0.428712
-0.90277
-0.594612
-0.216183
0.280121
0.181204
-0.360842
0.465832
-0.229411
0.422222
0.498907
1.49118
0.647528
0.532884
-0.25381
0.669986
-0.320745
0.229075
0.863682
0.0325536
-0.167881
-0.64814
-0.0480033
-0.185176
0.63612
0.163725
-0.545197
0.193388
0.352797
0.452517
-0.257573
0.448489
0.692599
0.394504
0.421003
0.224619
-0.295549
-1.04891
-0.243478
0.646096
0.627824
0.606329
0.281768
1.08188
0.82037
0.0427751
0.603279
0.382757
-0.133861
-0.326036
-1.13313
-0.249026
0.663243
0.81366
-0.0667806
-0.597221
-0.890904
-0.248516
0.0497154
0.51316
0.808652
0.7105
0.804517
0.397159
0.886545
0.264455
0.638005
0.00502771
-0.258003
-0.00676596
0.553689
-0.28406
0.574712
1.12614
1.09972
0.971438
0.865006
0.477705
0.494722
0.516265
1.15152
1.44016
1.19738
1.82054
1.52199
2.39999
3.15188
3.25219
3.42628
2.84177
2.44426
2.38611
1.84708
1.23661
0.688454
0.0298703
-0.0987323
-0.476528
0.370232
0.230646
-0.399721
0.410041
1.36954
1.24728
0.469516
-0.0143547
-0.196915
-0.00712287
-0.482699
-0.277013
0.145418
-0.619746
-0.98219
-1.13386
-1.11814
-1.59318
-0.991146
-0.133438
0.327224
0.304442
0.461492
0.37919
1.30537
1.39898
1.44125
0.904439
0.882234
1.13035
1.48863
1.27966
1.01453
0.0900071
0.860343
1.68692
0.884341
0.408084
0.0787973
0.438253
0.880708
0.094232
0.401747
0.390095
0.948198
1.37827
2.16012
1.82844
2.22593
1.62155
0.682636
1.17079
1.17083
1.13067
1.94012
2.17545
2.32889
1.69474
1.1746
0.231951
0.211754
1.16912
1.17006
1.11224
0.231473
0.595417
0.638717
-0.167823
0.468474
1.10357
0.403299
0.72251
0.759699
1.70565
2.00363
1.91123
1.77601
0.942949
0.209291
-0.00883293
0.653927
1.26066
0.381598
0.180113
0.233865
0.0674639
0.381184
0.63713
0.221099
0.084401
1.05253
0.386865
-0.400702
-0.655883
-0.676507
-0.997521
-0.0942596
0.746404
1.22212
0.76036
0.606031
0.701773
1.58725
1.42273
1.02564
1.42784
1.5061
1.83915
1.19542
0.451445
-0.206313
-1.14111
-1.01871
-0.254979
0.0833716
-0.535762
-0.797929
-0.876477
0.086799
-0.600391
0.110655
0.400184
0.152728
-0.465425
-0.608919
-0.644874
-0.46586
-1.01348
-1.24425
-1.07827
-1.49739
-1.26321
-0.614458
0.350869
0.811367
0.499121
0.667259
-0.117203
0.695414
1.45472
2.09024
1.6117
1.80041
0.845436
0.695955
0.321392
-0.355638
-0.998106
-1.15233
-0.955287
-1.01344
-0.62154
-0.221764
0.0552975
-0.80709
-1.16789
-1.10616
-0.797271
-0.982032
-0.34207
0.0946479
1.03195
1.09461
0.744906
-0.0438357
0.178082
0.735686
0.582592
-0.235762
-0.702819
-1.14081
-1.26064
-1.20635
-1.2915
-0.54076
-0.504656
0.382589
0.658007
0.139421
0.491666
0.0697953
0.413412
0.803693
0.313273
0.648938
0.337863
0.898903
1.24957
0.262997
0.467338
1.29932
0.301623
0.226521
0.0752192
-0.00294805
0.537371
0.182315
0.751794
0.694508
0.0462568
0.489773
0.436745
-0.257813
-0.575564
-0.360785
0.116069
-0.398232
0.436616
-0.0252604
0.50574
0.0807359
-0.737037
-0.584618
-0.217892
-0.124706
-0.273248
0.0156376
0.310873
0.668906
0.94048
1.83083
1.2487
1.66726
1.13972
0.378515
0.593123
0.493398
0.410849
0.734739
1.27531
0.975746
1.29976
1.13208
1.81594
2.48177
1.99466
2.22158
2.30306
1.83261
1.46876
0.707191
1.58685
1.54578
1.63521
1.92983
2.0176
2.4597
2.50469
1.94204
1.15364
0.373032
-0.499785
-0.603039
-0.871407
-0.344398
-0.088605
0.455356
1.40084
0.784894
-0.0274658
0.023343
0.0840315
0.806311
0.776018
0.562931
0.905793
1.38831
1.42841
1.12384
0.423834
0.596018
-0.315074
0.194792
-0.319637
-0.434832
-0.0592402
-0.340784
0.131896
-0.0786887
0.288143
0.696238
0.580849
-0.379996
-0.531377
-0.990836
-1.59673
-0.953286
-1.09344
-0.317901
0.220327
0.0139103
0.630939
1.14109
0.895884
0.327922
1.22653
0.88166
1.22419
1.10148
1.76848
1.10299
1.82695
1.8558
2.03185
1.34135
0.741078
0.554988
1.0524
1.70357
2.28349
1.92054
1.98867
1.16857
0.391982
-0.335433
0.0218718
0.0122259
0.0022375
-0.702546
-1.5926
-0.891172
-0.770053
0.0891644
0.482499
0.648081
1.27888
2.0369
1.03795
1.76882
1.82419
1.78323
1.23892
1.23511
2.03681
2.18613
2.35811
1.85158
2.18441
1.35138
1.60329
2.0628
2.22569
3.08232
2.11628
1.358
1.3266
2.01631
1.43512
1.5397
0.603681
0.833108
0.557931
-0.343004
-0.363864
-1.07083
-0.800438
-0.723245
-0.332919
-0.334687
-0.263084
-0.28237
0.423626
-0.0357849
0.0941742
0.374798
0.208856
1.10472
0.268864
-0.519717
-1.1868
-0.944879
-0.797459
-1.6933
-0.8309
-0.373577
0.102106
-0.771085
-0.0502037
0.818607
1.53648
1.56324
0.918444
0.715623
-0.0165145
-0.954735
-0.076452
-0.47384
-0.807967
-0.873831
-0.577434
-1.52698
-0.842565
-0.724499
-0.0162996
-0.320541
-0.428488
-0.102872
-0.441214
0.355758
-0.407931
0.568905
0.648869
1.64785
1.22355
1.0526
0.982276
1.51019
2.1466
1.34704
0.703275
0.422545
-0.464046
-0.420275
-0.748577
-1.39724
-0.586931
-0.236149
-0.299213
0.525052
-0.266925
0.224168
0.696703
0.820425
0.188814
0.383236
-0.0168898
-0.748644
0.0412394
-0.815855
-1.33088
-0.536499
-0.624384
-1.42105
-0.430266
-0.76608
-1.17139
-1.5749
-1.56404
-1.04119
-0.77905
-1.59927
-1.04479
-0.234517
-0.166973
-0.948664
-0.297046
-0.620851
-1.0329
-0.540278
-0.204446
0.00249028
0.0546952
0.514114
1.07687
0.652822
1.03789
1.15123
0.944268
0.0674489
0.6278
0.302968
0.518699
1.00121
0.210834
0.309914
0.280373
1.06132
1.65925
0.761909
-0.0923206
0.504381
0.871812
0.135978
0.581427
-0.197866
0.0835701
0.391194
0.557566
1.03763
0.507284
0.977199
1.71106
0.883529
0.616402
0.3548
0.724857
0.92074
1.49947
1.23477
0.646829
-0.179838
0.36403
0.140574
0.244131
-0.297963
-0.0140817
-0.0451209
-0.74143
-0.177566
-0.976353
-1.38822
-1.32648
-2.11678
-1.54793
-1.34086
-0.412016
-0.547046
-0.157541
0.358657
0.223942
0.534938
-0.245552
0.621968
-0.00311059
0.59255
0.567758
1.10567
0.897687
0.443565
0.790155
0.649284
0.552762
0.772476
-0.108717
-0.477094
0.0683502
0.461216
-0.288119
-1.10341
-2.08777
-2.24156
-1.93041
-1.48456
-1.42215
-1.15861
-1.96142
-2.62492
-2.98996
-3.55484
-2.76899
-2.36254
-2.25107
-1.42347
-1.01004
-0.894459
-0.649465
0.326405
-0.158011
-0.364412
0.00377983
-0.191444
0.774227
0.578595
0.819939
0.128678
-0.549054
-0.0328289
0.709393
0.410947
0.782018
0.370315
0.431574
1.09642
1.2914
0.962024
0.560474
0.465659
0.31095
0.427589
0.276258
0.13497
-0.816162
-1.18112
-0.873741
0.0401313
0.911593
0.827366
0.308323
0.836118
1.35477
1.83607
1.04791
1.41103
1.33755
0.761879
-0.0410838
0.606065
-0.0439154
0.288059
0.321175
0.72658
0.0337608
0.940675
1.02244
1.38191
0.455037
1.07344
1.57068
0.811056
0.861147
0.512814
0.605713
0.403474
0.233661
-0.404863
-0.89409
-1.85302
-1.00567
-0.698267
0.16696
-0.506016
0.336179
0.925495
1.08028
0.960354
0.475582
0.979475
0.436814
-0.434812
0.0998468
0.442251
0.872676
1.1568
0.994894
0.776419
1.4087
1.04355
1.6217
2.32623
2.3375
2.60883
2.49675
1.61679
