%%MatrixMarket matrix array real general
%
100 1
10000.2
3553.03
2168.41
1510.89
1188.73
708.174
625.658
443.186
382.851
337.064
266.946
246.039
207.897
168.657
145.775
126.238
135.732
119.185
99.3613
95.9218
83.9869
85.529
71.5411
81.737
57.7693
64.2088
54.518
56.6255
48.098
50.5059
45.4127
43.5047
37.6297
44.2878
34.3648
41.5241
36.6794
37.0733
34.6081
34.2196
29.7477
33.7578
22.9421
26.4565
25.495
25.1409
21.7955
25.4413
21.7384
22.307
20.8075
20.029
21.7249
19.3882
18.5037
18.4694
17.0184
19.4473
17.4419
15.9849
16.1499
15.6804
15.3212
16.0508
13.499
15.8161
12.3332
14.1722
11.7351
13.8766
11.4931
13.9132
12.1677
13.6732
11.0747
13.5816
10.6477
13.2893
11.2609
12.5633
10.2317
12.5017
9.42427
11.6427
9.76687
9.49602
10.1282
9.49917
10.2224
10.4917
9.5918
9.90622
10.3498
8.57206
10.4063
9.36798
9.7988
9.83196
9.81868
8.56929
