%%MatrixMarket matrix array real general
%
100 1
-0.0105259
-1.38981
1.15726
0.444601
2.03946
-1.13281
0.673504
0.708248
0.476152
0.369621
-0.714825
-0.465294
-0.860449
-0.637987
0.532693
0.510229
-3.80181
0.287333
-1.12995
1.22677
0.898248
0.63131
-0.782806
-0.252816
-0.655198
0.0903041
-2.93801
0.157984
-0.74483
0.971033
-0.322968
0.487296
1.34958
-0.765245
0.875196
0.259475
-0.871392
-0.298794
-0.161076
0.656846
-0.63882
2.04576
0.857121
-2.3097
0.633352
0.629228
-0.364347
-1.9534
-1.78095
1.87543
0.197867
1.05123
0.461742
-0.0628042
0.153793
-1.13854
-0.337862
1.84409
-0.88822
1.47103
-0.673711
-1.10091
1.99907
-0.78924
0.569065
-0.949404
0.578315
0.241885
0.346603
0.069003
-2.35395
0.761282
-1.94757
1.71292
1.14448
-0.73693
2.53793
0.075499
1.55698
0.815952
-1.20763
0.237023
-1.5458
1.0564
-0.0553695
0.872955
0.201134
0.14817
0.961931
-0.781563
-1.44152
1.44524
-0.455334
-0.0210353
1.28055
-0.526148
0.145663
-0.544642
-1.44458
-0.24218
